s td 106 12 140
b 1 5 52 61
b 2 6 23 51 88
b 3 7 23 55 116
b 4 11 15 60
b 5 3 12 39 100
b 6 16 137 138 139
b 7 17 94 117
b 8 18 42 122 123
b 9 28 70 121
b 10 29 59 78 97
b 11 31 72 124 132
b 12 38 41 48 76
b 13 50 72 118 126
b 14 13 54 64 101 140
b 15 14 58 128
b 16 60 82 107
b 17 79 86 110
b 18 73 80 84 115 127
b 19 91 102 105
b 20 51 95 106 113
b 21 26 77 104 124
b 22 67 86
b 23 36 61 83 117 131
b 24 70 75 129
b 25 42 69 96
b 26 68 87 130
b 27 71 133 135
b 28 2 63 82 129
b 29 82 107 129
b 30 75 107 129
b 31 8 19 30 92
b 32 10 81 96 108
b 33 21 69 96 108
b 34 21 81 96 108
b 35 21 96 108
b 36 14 106 112 128
b 37 20 24 101 114
b 38 21 32 93 108
b 39 25 49 108 125 136
b 40 9 32 89 93 108
b 41 33 43 109 138
b 42 52 61 107 112
b 43 24 56 84 109
b 44 4 59 62 78
b 45 68 87 112 126
b 46 72 87 112 126
b 47 67 72 87 112
b 48 67 72 112 124
b 49 23 67 71 133
b 50 73 84 99 127
b 51 37 40 74 90
b 52 77 102 105 112
b 53 67 77 105 112 124
b 54 26 67 77 112 124
b 55 26 67 112 124
b 56 111 112 134 140
b 57 51 67 106 112 128
b 58 51 67 106 112 113
b 59 23 51 67 112 113
b 60 23 55 67 112 113
b 61 55 67 90 112 113
b 62 23 55 67 112 116
b 63 23 67 112 116 133
b 64 26 55 67 90 112 113
b 65 35 48 53 76 85
b 66 1 3 24 49 57 67 76 92 107 108 112
b 67 3 24 49 67 92 107 108 112 136
b 68 3 24 67 75 92 107 112 136
b 69 3 24 34 39 67 75 92 112 136
b 70 4 34 39 67 75 92 112 136
b 71 4 34 39 62 75 92 112
b 72 4 34 39 62 78 92
b 73 34 39 45 78 92
b 74 3 24 34 39 67 75 90 112 136
b 75 3 24 34 39 40 75 90 136
b 76 3 22 39 40 75 90 136
b 77 3 22 37 40 90
b 78 22 39 40 75 120 136
b 79 1 3 24 46 57 65 67 76 92 108 112 114
b 80 1 19 24 46 65 67 76 89 92 108 112 114
b 81 9 19 24 67 89 92 108 112 114
b 82 9 19 24 67 92 112 114 140
b 83 9 24 67 101 114 140
b 84 9 13 67 101 140
b 85 9 19 30 92 112 114 140
b 86 9 19 30 112 134 140
b 87 1 19 24 46 65 67 76 89 92 109 112 114
b 88 1 19 24 35 65 67 76 89 92 109 112 114
b 89 1 19 24 35 65 67 89 92 99 109 112
b 90 1 19 35 47 65 89 92 99 109 112
b 91 1 19 35 47 65 89 92 109 139
b 92 1 19 35 43 47 65 89 109 139
b 93 27 43 47 89 109 139
b 94 1 19 35 43 65 109 138 139
b 95 24 67 89 99 109 127
b 96 24 84 99 109 127
b 97 19 35 53 76 109 114
b 98 35 53 76 85 114
b 99 1 3 46 57 65 114 119
b 100 24 49 57 67 76 92 98 107 112
b 101 24 49 57 67 83 98 107 112
b 102 24 57 66 83 98 107 112
b 103 61 66 83 98 107 112
b 104 36 61 66 83 98
b 105 1 49 57 76 103 107
b 106 3 44 46 57 65 119
1 42
2 59
3 62
4 16
5 69
6 94
7 23
8 25
9 24
10 44
11 48
12 65
13 46
14 84
15 36
16 29
17 22
18 50
19 52
20 58
21 54
22 66
23 104
24 30
25 33
26 45
27 49
28 29
29 30
30 68
31 85
32 34
33 35
34 35
35 38
36 57
37 83
38 40
39 67
40 81
41 94
42 103
43 96
44 72
45 46
46 47
47 48
48 55
49 63
50 96
51 77
52 53
53 54
54 55
55 64
56 86
57 58
58 59
59 60
60 62
60 61
61 64
61 74
62 63
65 98
66 67
66 79
66 100
66 105
67 68
68 69
69 70
69 74
70 71
71 72
72 73
74 75
75 76
76 77
76 78
79 80
79 99
80 81
80 87
81 82
82 83
82 85
83 84
85 86
87 88
88 89
88 97
89 90
89 95
90 91
91 92
92 93
92 94
95 96
97 98
99 106
100 101
101 102
102 103
103 104
